10
0, 758, 431, 436, 790, 840, 434, 166, 905, 181
758, 0, 784, 427, 446, 210, 688, 765, 431, 861
431, 784, 0, 358, 563, 751, 99, 592, 1101, 607
436, 427, 358, 0, 358, 431, 266, 526, 758, 596
790, 446, 563, 358, 0, 280, 471, 883, 875, 954
840, 210, 751, 431, 280, 0, 652, 884, 632, 972
434, 688, 99, 266, 471, 652, 0, 583, 1019, 615
166, 765, 592, 526, 883, 884, 583, 0, 828, 99
905, 431, 1101, 758, 875, 632, 1019, 828, 0, 925
181, 861, 607, 596, 954, 972, 615, 99, 925, 0
